p cnf 684 1851
a 438 439 440 441 442 443 444 445 446 447 448 449 450 451 452 453 454 455 456 457 458 459 460 461 462 463 464 465 466 467 468 469 470 471 472 473 474 475 476 477 478 479 480 481 482 483 484 485 486 487 488 489 490 491 492 493 494 495 496 497 498 499 500 501 502 503 504 505 506 507 508 509 510 511 512 513 514 515 516 517 518 519 520 521 522 523 524 525 526 527 528 529 530 531 532 533 534 535 536 537 538 539 540 541 542 543 544 545 546 547 548 549 550 551 552 553 554 555 556 557 558 559 560 0
e 416 417 418 419 420 421 422 423 424 425 426 427 428 429 430 431 432 433 434 435 436 437 2 3 4 5 6 7 8 9 10 11 12 13 14 15 16 17 18 19 20 21 22 23 24 25 26 27 28 29 30 31 32 33 34 35 36 37 38 39 40 41 42 43 44 45 46 47 48 49 50 51 52 53 54 55 56 57 58 59 60 61 62 63 64 65 66 67 68 69 70 71 72 73 74 75 76 77 78 79 80 81 82 83 84 85 86 87 88 89 90 91 92 93 94 95 96 97 98 99 100 101 102 103 104 105 106 107 108 109 110 111 112 113 114 115 116 117 118 119 120 121 122 123 124 125 126 127 128 129 130 131 132 133 134 135 136 137 138 139 140 141 142 143 144 145 146 147 148 149 150 151 152 153 154 155 156 157 158 159 160 161 162 163 164 165 166 167 168 169 170 171 172 173 174 175 176 177 178 179 180 181 182 183 184 185 186 187 188 189 190 191 192 193 194 195 196 197 198 199 200 201 202 203 204 205 206 207 208 209 210 211 212 213 214 215 216 217 218 219 220 221 222 223 224 225 226 227 228 229 230 231 232 233 234 235 236 237 238 239 240 241 242 243 244 245 246 247 248 249 250 251 252 253 254 255 256 257 258 259 260 261 262 263 264 265 266 267 268 269 270 271 272 273 274 275 276 277 278 279 280 281 282 283 284 285 286 287 288 289 290 291 292 293 294 295 296 297 298 299 300 301 302 303 304 305 306 307 308 309 310 311 312 313 314 315 316 317 318 319 320 321 322 323 324 325 326 327 328 329 330 331 332 333 334 335 336 337 338 339 340 341 342 343 344 345 346 347 348 349 350 351 352 353 354 355 356 357 358 359 360 361 362 363 364 365 366 367 368 369 370 371 372 373 374 375 376 377 378 379 380 381 382 383 384 385 386 387 388 389 390 391 392 393 394 395 396 397 398 399 400 401 402 403 404 405 406 407 408 409 410 411 412 413 414 415 684 0
4 -5 -271 -292 -405 0
405 -4 0
5 -4 0
292 -4 0
271 -4 0
5 -6 -232 -258 -266 0
266 -5 0
6 -5 0
258 -5 0
232 -5 0
6 133 186 -7 -193 0
193 -6 0
-6 -186 0
7 -6 0
-6 -133 0
7 485 8 -464 -128 0
7 464 485 -8 -128 0
7 464 128 -485 -8 0
7 8 128 -464 -485 0
-7 -464 -8 0
464 8 -7 0
485 128 -7 0
-7 -485 -128 0
8 9 -21 0
8 9 123 126 0
-8 -9 0
21 -8 -126 0
21 -8 -123 0
9 10 -11 0
-9 -10 0
11 -9 0
10 416 -417 0
-10 -416 0
417 -10 0
11 -550 -17 0
11 12 -17 0
17 -11 0
550 -11 -12 0
12 -13 -14 0
12 513 -13 -16 0
13 -12 0
14 -12 -513 0
14 16 -12 0
13 470 539 0
-13 -470 0
-13 -539 0
14 504 514 558 -15 0
15 -14 0
-14 -558 0
-14 -504 0
-14 -514 0
15 449 461 492 -456 0
456 -15 0
-15 -492 0
-15 -449 0
-15 -461 0
16 456 462 0
-16 -456 0
-16 -462 0
17 18 -12 0
17 18 -19 0
-17 -18 0
12 19 -17 0
18 -491 -550 0
491 -18 0
550 -18 0
19 13 -475 -20 0
19 -464 -13 -20 0
20 -19 0
475 13 -19 0
464 -19 -13 0
20 475 528 0
20 464 540 0
20 528 540 0
20 464 475 0
-20 -464 -528 0
-20 -475 -540 0
21 -22 -88 0
22 -21 0
88 -21 0
22 70 85 -23 0
22 70 85 -33 0
-22 -85 0
-22 -70 0
23 33 -22 0
23 10 24 26 0
-23 -10 0
-23 -26 0
-23 -24 0
24 -418 -25 0
418 -24 0
25 -24 0
25 416 417 0
-25 -416 0
-25 -417 0
26 -27 -31 0
27 -26 0
31 -26 0
27 -29 0
27 28 -542 0
29 -27 -28 0
542 29 -27 0
28 451 470 522 0
-28 -451 0
-28 -522 0
-28 -470 0
29 30 -479 -28 0
29 -489 -28 -30 0
28 -29 0
489 -29 -30 0
479 30 -29 0
30 468 518 0
-30 -468 0
-30 -518 0
31 419 -420 -32 0
32 -31 0
420 -31 0
-31 -419 0
32 418 -25 0
-32 -418 0
25 -32 0
33 58 66 -34 0
33 58 66 -35 0
-33 -66 0
-33 -58 0
34 35 -33 0
34 416 24 26 0
-34 -416 0
-34 -26 0
-34 -24 0
35 36 52 -25 0
35 36 52 56 0
-35 -52 0
-35 -36 0
25 -35 -56 0
36 -37 -47 0
37 -36 0
47 -36 0
37 -24 -38 0
24 -37 0
38 -37 0
38 510 -44 0
38 443 -44 0
38 443 -510 -39 0
510 44 -38 0
-38 -443 -510 0
39 44 -38 0
39 -40 -41 0
39 544 -40 -43 0
40 -39 0
41 -39 -544 0
41 43 -39 0
40 470 527 0
-40 -470 0
-40 -527 0
41 530 541 556 -42 0
42 -41 0
-41 -556 0
-41 -530 0
-41 -541 0
42 472 487 520 -500 0
-42 -472 0
-42 -520 0
500 -42 0
-42 -487 0
43 478 500 0
-43 -478 0
-43 -500 0
44 39 -45 0
-44 -39 0
45 -44 0
45 40 -519 -46 0
45 -507 -40 -46 0
46 -45 0
519 40 -45 0
507 -45 -40 0
46 507 516 0
46 454 519 0
46 507 519 0
46 454 516 0
-46 -454 -507 0
-46 -516 -519 0
47 545 -49 0
47 488 -49 0
47 488 -545 -48 0
545 49 -47 0
-47 -488 -545 0
48 49 -47 0
48 473 503 534 -40 0
40 -48 0
-48 -534 0
-48 -473 0
-48 -503 0
49 48 -50 0
-49 -48 0
50 -49 0
50 40 -533 -51 0
50 -548 -40 -51 0
51 -50 0
533 40 -50 0
548 -50 -40 0
51 496 533 0
51 483 548 0
51 533 548 0
51 483 496 0
-51 -483 -533 0
-51 -496 -548 0
52 -37 -53 0
37 -52 0
53 -52 0
53 545 -54 0
53 488 -54 0
54 -53 0
-53 -488 -545 0
54 -488 -48 0
54 48 -55 0
488 -54 -48 0
48 55 -54 0
55 40 -483 -51 0
55 -496 -40 -51 0
51 -55 0
483 40 -55 0
496 -55 -40 0
56 424 57 -423 0
56 423 424 -57 0
-56 -424 0
-56 -423 -57 0
423 57 -56 0
57 -421 -422 0
421 -57 0
422 -57 0
58 -59 -60 0
59 -58 0
60 -58 0
59 -10 -11 0
10 -59 0
11 -59 0
60 -521 -62 0
60 61 -62 0
62 -60 0
521 -60 -61 0
61 486 538 553 -13 0
13 -61 0
-61 -553 0
-61 -486 0
-61 -538 0
62 63 -61 0
62 63 -64 0
-62 -63 0
61 64 -62 0
63 -458 -521 0
458 -63 0
521 -63 0
64 13 -515 -65 0
64 -526 -13 -65 0
65 -64 0
515 13 -64 0
526 -64 -13 0
65 463 515 0
65 448 526 0
65 515 526 0
65 448 463 0
-65 -448 -515 0
-65 -463 -526 0
66 -59 -67 0
59 -66 0
67 -66 0
67 521 -68 0
67 458 -68 0
67 521 -458 -61 0
-67 -458 -521 0
458 68 -67 0
61 68 -67 0
68 61 -69 0
-68 -61 0
69 -68 0
69 13 -448 -65 0
69 -463 -13 -65 0
65 -69 0
448 13 -69 0
463 -69 -13 0
70 -71 -80 0
71 -70 0
80 -70 0
71 -416 -72 0
416 -71 0
72 -71 0
72 482 73 -78 0
72 482 -465 -73 0
72 465 73 -78 0
73 78 -72 0
465 -72 -73 0
-72 -465 -482 0
73 -74 -75 0
73 554 -74 -77 0
74 -73 0
75 -73 -554 0
75 77 -73 0
74 439 470 0
-74 -439 0
-74 -470 0
75 517 532 -546 -76 0
-75 -517 0
76 -75 0
546 -75 0
-75 -532 0
76 452 466 481 509 0
-76 -509 0
-76 -481 0
-76 -452 0
-76 -466 0
77 501 546 0
-77 -501 0
-77 -546 0
78 74 -535 -79 0
78 -551 -74 -79 0
79 -78 0
535 74 -78 0
551 -78 -74 0
79 485 535 0
79 474 551 0
79 535 551 0
79 474 485 0
-79 -474 -535 0
-79 -485 -551 0
80 498 -82 0
80 445 -82 0
80 498 -445 -81 0
-80 -445 -498 0
445 82 -80 0
81 82 -80 0
81 459 512 523 -74 0
74 -81 0
-81 -523 0
-81 -459 0
-81 -512 0
82 81 -83 0
-82 -81 0
83 -82 0
83 74 -450 -84 0
83 -438 -74 -84 0
84 -83 0
450 74 -83 0
438 -83 -74 0
84 493 505 0
84 438 450 0
84 450 505 0
84 438 493 0
-84 -450 -493 0
-84 -438 -505 0
85 -71 -86 0
71 -85 0
86 -85 0
86 445 -498 -81 0
86 498 81 -87 0
86 445 -498 -87 0
81 87 -86 0
498 -86 -81 0
-86 -445 -498 0
87 74 -493 -84 0
87 -505 -74 -84 0
84 -87 0
493 74 -87 0
505 -87 -74 0
88 89 -114 0
-88 -89 0
114 -88 0
89 107 108 -23 0
89 107 108 -90 0
-89 -108 0
-89 -107 0
23 90 -89 0
90 59 91 101 0
90 91 101 -67 0
-90 -101 0
-90 -91 0
67 -90 -59 0
91 34 -92 0
91 34 98 0
91 34 -97 0
-91 -34 0
92 97 -91 -98 0
92 425 -93 0
-92 -425 0
93 -92 0
93 95 -94 0
94 -93 0
-93 -95 0
94 38 -24 0
24 -94 0
-94 -38 0
95 510 39 -96 0
95 510 -443 -39 0
95 443 39 -96 0
39 96 -95 0
443 -95 -39 0
-95 -443 -510 0
96 40 -516 -46 0
96 -454 -40 -46 0
46 -96 0
516 40 -96 0
454 -96 -40 0
97 47 53 -37 0
37 -97 0
-97 -53 0
-97 -47 0
98 52 99 0
-98 -52 0
-98 -99 0
99 25 -100 0
99 -418 -26 -100 0
100 -99 0
26 -99 -25 0
418 -99 -25 0
100 421 424 0
-100 -421 0
-100 -424 0
101 426 -102 0
-101 -426 0
102 -101 0
102 104 -103 0
103 -102 0
-102 -104 0
103 11 -10 0
10 -103 0
-103 -11 0
104 550 -105 0
104 491 -105 0
104 550 -491 -12 0
-104 -491 -550 0
491 105 -104 0
12 105 -104 0
105 12 -106 0
-105 -12 0
106 -105 0
106 13 -540 -20 0
106 -528 -13 -20 0
20 -106 0
540 13 -106 0
528 -106 -13 0
107 80 -71 0
71 -107 0
-107 -80 0
108 427 -109 0
-108 -427 0
109 -108 0
109 111 -110 0
110 -109 0
-109 -111 0
110 72 -416 0
416 -110 0
-110 -72 0
111 482 -112 0
111 465 -112 0
111 465 -482 -73 0
482 112 -111 0
-111 -465 -482 0
73 112 -111 0
112 73 -113 0
-112 -73 0
113 -112 0
113 74 -474 -79 0
113 -485 -74 -79 0
79 -113 0
474 74 -113 0
485 -113 -74 0
114 107 115 -121 0
114 115 -86 -121 0
121 -114 0
-114 -115 0
86 -114 -107 0
115 23 120 0
115 23 34 116 0
-115 -23 0
-115 -34 -120 0
-115 -116 -120 0
116 425 36 -117 0
116 36 93 -117 0
117 -116 0
-116 -36 0
-116 -425 -93 0
117 97 -118 0
-117 -97 0
118 -117 0
118 25 119 0
118 95 -25 0
118 418 -25 0
25 -118 -119 0
-118 -418 -25 -95 0
119 421 424 -422 0
119 422 424 -421 0
-119 -424 0
421 422 -119 0
-119 -421 -422 0
120 426 59 0
120 102 -60 0
120 59 102 0
120 426 -60 0
-120 -426 -102 0
60 -120 -59 0
121 427 70 -122 0
121 70 109 -122 0
122 -121 0
-121 -70 0
-121 -427 -109 0
122 111 -416 0
122 416 104 0
122 416 417 0
-122 -416 -111 0
416 -122 -417 -104 0
123 -10 -124 0
10 -123 0
124 -123 0
124 -22 -125 0
22 -124 0
125 -124 0
125 114 -89 0
89 -125 0
-125 -114 0
126 127 -11 -89 0
11 -126 0
89 -126 0
-126 -127 0
127 22 -125 0
-127 -22 0
125 -127 0
128 416 131 0
128 130 131 -129 0
-128 -131 0
129 -128 -416 0
-128 -416 -130 0
129 21 127 0
-129 -21 0
-129 -127 0
130 -32 -111 0
32 -130 0
111 -130 0
131 436 72 124 -132 0
132 -131 0
-131 -124 0
-131 -436 0
-131 -72 0
132 416 -111 0
-132 -416 0
111 -132 0
133 184 -471 0
133 184 -134 -182 0
-133 -184 0
471 182 -133 0
471 134 -133 0
134 -135 -136 0
134 529 157 -135 0
135 -134 0
136 -134 -529 0
136 -134 -157 0
135 429 430 431 432 0
-135 -432 0
-135 -431 0
-135 -429 0
-135 -430 0
136 -137 -144 0
137 -136 0
144 -136 0
137 -138 -143 0
138 -137 0
143 -137 0
138 142 -494 0
138 139 -141 0
138 139 142 0
138 -494 -141 0
494 -138 -139 0
141 -138 -142 0
139 -10 -140 0
10 -139 0
140 -139 0
140 484 -506 0
-140 -484 0
506 -140 0
141 426 484 0
-141 -426 0
-141 -484 0
142 506 -10 0
-142 -506 0
10 -142 0
143 142 -469 0
143 139 141 0
143 139 142 0
143 141 -469 0
469 -143 -139 0
-143 -141 -142 0
144 -145 -151 0
145 -144 0
151 -144 0
145 146 149 0
-145 -146 0
-145 -149 0
146 -24 -147 0
146 460 -24 -148 0
24 -146 0
147 -146 -460 0
147 148 -146 0
147 425 441 536 0
-147 -425 0
-147 -536 0
-147 -441 0
148 441 -536 0
-148 -441 0
536 -148 0
149 536 -150 0
149 441 555 -150 0
150 -149 0
-149 -536 -555 0
-149 -441 -536 0
150 -425 -24 0
150 -441 -24 0
150 -536 -24 0
24 -150 0
425 441 536 -150 0
151 -152 -156 0
152 -151 0
156 -151 0
152 155 -442 0
152 153 -154 0
152 153 155 0
152 -442 -154 0
442 -152 -153 0
154 -152 -155 0
153 455 -416 -549 0
416 -153 0
-153 -455 0
549 -153 0
154 427 455 0
-154 -427 0
-154 -455 0
155 549 -416 0
416 -155 0
-155 -549 0
156 155 -471 0
156 153 154 0
156 153 155 0
156 154 -471 0
471 -156 -153 0
-156 -154 -155 0
157 158 181 0
157 24 158 -453 0
-157 -158 0
453 -157 -181 0
-157 -24 -181 0
158 159 179 0
-158 -159 0
-158 -179 0
159 -160 -172 0
160 -159 0
172 -159 0
160 161 -162 0
160 161 165 171 0
-160 -161 0
162 -160 -171 0
162 -160 -165 0
161 442 -471 -153 0
161 471 -442 -153 0
153 -161 0
442 471 -161 0
-161 -442 -471 0
162 -145 -163 0
145 -162 0
163 -162 0
163 164 -137 0
137 -163 0
-163 -164 0
164 -529 -31 0
529 -164 0
31 -164 0
165 166 -169 0
165 166 -56 -167 0
-165 -166 0
167 169 -165 0
56 169 -165 0
166 164 -144 0
144 -166 0
-166 -164 0
167 136 168 0
-167 -136 0
-167 -168 0
168 -151 -163 0
151 -168 0
163 -168 0
169 460 -555 -170 0
169 555 -460 -170 0
170 -169 0
460 555 -169 0
-169 -460 -555 0
170 -24 -148 0
24 -170 0
148 -170 0
171 469 -494 -139 0
171 494 -469 -139 0
139 -171 0
469 494 -171 0
-171 -469 -494 0
172 173 -156 -175 0
172 173 177 -156 0
156 -172 0
-172 -173 0
175 -172 -177 0
173 -152 -162 0
173 174 -138 -152 0
152 -173 0
162 -173 -174 0
138 162 -173 0
174 166 -149 0
174 166 -119 -167 0
-174 -166 0
149 167 -174 0
119 149 -174 0
175 -143 -166 0
175 146 176 -143 0
143 -175 0
166 -175 -146 0
166 -175 -176 0
176 421 424 168 0
-176 -421 0
-176 -168 0
-176 -424 0
177 162 -178 0
177 162 -168 0
177 162 -166 0
-177 -162 0
166 168 178 -177 0
178 57 136 0
178 136 -424 0
178 423 136 0
-178 -136 0
424 -178 -423 -57 0
179 136 -180 0
-179 -136 0
180 -179 0
180 -160 -173 0
160 -180 0
173 -180 0
181 476 524 0
181 524 -416 0
181 416 476 -417 0
-181 -416 -524 0
416 -181 -476 0
417 -181 -524 0
182 433 -183 0
-182 -433 0
183 -182 0
183 416 455 -549 -179 0
-183 -416 0
179 -183 0
549 -183 0
-183 -455 0
184 442 -471 -182 0
184 442 185 -471 0
-184 -442 0
471 -184 0
182 -184 -185 0
185 -161 -134 0
185 -134 -183 0
134 -185 0
161 183 -185 0
186 188 -455 -549 0
186 188 -549 -187 0
549 -186 0
-186 -188 0
455 187 -186 0
187 -416 -134 0
416 -187 0
134 -187 0
188 179 -159 -187 0
188 179 -187 -189 0
187 -188 0
-188 -179 0
159 189 -188 0
189 455 -549 -190 0
190 -189 0
549 -189 0
-189 -455 0
190 191 192 0
-190 -191 0
-190 -192 0
191 172 180 0
-191 -172 0
-191 -180 0
192 160 -172 0
-192 -160 0
172 -192 0
193 528 223 -194 -228 0
193 223 228 -528 -194 0
-193 -223 0
-193 -528 -228 0
194 -193 0
528 228 -193 0
194 525 -195 -204 -219 0
194 195 -525 -204 -219 0
219 -194 0
525 195 -194 0
204 -194 0
-194 -525 -195 0
195 110 -196 0
195 110 199 0
195 110 -197 0
-195 -110 0
196 197 -195 -199 0
196 416 -127 0
-196 -416 0
127 -196 0
197 416 -198 0
-197 -416 0
198 -197 0
198 22 -88 0
-198 -22 0
88 -198 0
199 26 200 0
-199 -26 0
-199 -200 0
200 477 -201 0
200 201 203 0
-200 -477 -201 0
201 -200 -203 0
201 467 480 -74 -202 0
-201 -467 0
202 -201 0
74 -201 0
-201 -480 0
202 495 531 547 0
-202 -495 0
-202 -547 0
-202 -531 0
203 74 -537 0
203 -525 -74 0
537 74 -203 0
525 -203 -74 0
204 551 -451 -205 -208 0
204 205 -451 -551 -208 0
204 451 551 208 -205 0
204 451 205 208 -551 0
-204 -551 -205 0
551 205 -204 0
451 -204 -208 0
208 -204 -451 0
205 206 207 0
-205 -206 0
-205 -207 0
206 416 -72 0
-206 -416 0
72 -206 0
207 -416 -124 0
416 -207 0
124 -207 0
208 209 214 0
208 24 209 210 0
-208 -209 0
-208 -24 -214 0
-208 -210 -214 0
209 21 124 0
-209 -21 0
-209 -124 0
210 557 -211 0
210 211 213 0
-210 -557 -211 0
211 -210 -213 0
211 447 490 -40 -212 0
-211 -447 0
212 -211 0
40 -211 0
-211 -490 0
212 502 543 560 0
-212 -502 0
-212 -560 0
-212 -543 0
213 -552 -40 0
213 40 -497 0
497 40 -213 0
552 -213 -40 0
214 -416 -215 0
214 -200 -215 0
214 416 -417 -200 0
215 -214 -416 0
416 200 -214 0
417 215 -214 0
215 440 -216 0
215 216 218 0
-215 -440 -216 0
216 -215 -218 0
216 444 446 -13 -217 0
-216 -444 0
217 -216 0
13 -216 0
-216 -446 0
217 457 499 511 0
-217 -457 0
-217 -511 0
-217 -499 0
218 -559 -13 0
218 13 -508 0
508 13 -218 0
559 -218 -13 0
219 507 527 208 -220 0
219 507 -527 -208 -220 0
219 220 -507 -527 -208 0
219 527 208 220 -507 0
-219 -507 -220 0
507 220 -219 0
208 -219 -527 0
527 -219 -208 0
220 221 222 0
-220 -221 0
-220 -222 0
221 24 -38 0
-221 -24 0
38 -221 0
222 -24 -124 0
24 -222 0
124 -222 0
223 438 -224 0
223 224 -438 0
-223 -438 -224 0
438 224 -223 0
224 227 -225 0
224 71 227 -80 0
-224 -227 0
225 -224 -71 0
80 225 -224 0
225 433 -226 0
-225 -433 0
226 -225 0
226 -21 -206 0
21 -226 0
206 -226 0
227 -433 -226 0
227 71 226 -86 0
86 226 -227 0
433 -227 -226 0
226 -227 -71 0
228 10 230 0
228 229 230 -129 0
-228 -230 0
129 -228 -10 0
-228 -10 -229 0
229 -32 -104 0
32 -229 0
104 -229 0
230 434 11 124 -231 0
231 -230 0
-230 -124 0
-230 -434 0
-230 -11 0
231 10 -104 0
-231 -10 0
104 -231 0
232 233 237 -559 -244 0
232 559 237 -233 -244 0
244 -232 0
559 233 -232 0
-232 -237 0
-232 -559 -233 0
233 103 -234 0
233 103 235 0
-233 -103 0
234 -233 -235 0
234 10 -127 0
-234 -10 0
127 -234 0
235 26 215 236 0
-235 -26 0
-235 -236 0
-235 -215 0
236 10 -198 0
-236 -10 0
198 -236 0
237 455 -238 0
237 238 -455 -134 0
237 238 -455 -549 0
-237 -455 -238 0
455 238 -237 0
549 134 -237 -455 0
238 -134 -242 0
238 239 -416 -134 0
134 -238 0
242 -238 -239 0
416 242 -238 0
239 179 240 0
239 179 -241 0
-239 -179 0
241 -239 -240 0
240 159 191 0
-240 -159 0
-240 -191 0
241 -455 -549 0
241 455 192 0
549 -241 -455 0
455 -241 -192 0
242 416 436 159 -243 0
243 -242 0
-242 -159 0
-242 -416 0
-242 -436 0
243 549 -455 0
455 -243 0
-243 -549 0
244 552 249 -245 0
244 245 249 -552 0
-244 -249 0
552 245 -244 0
-244 -552 -245 0
245 94 -246 0
245 94 248 0
245 94 -247 0
-245 -94 0
246 247 -245 -248 0
246 24 -198 0
-246 -24 0
198 -246 0
247 24 -127 0
-247 -24 0
127 -247 0
248 26 210 0
-248 -26 0
-248 -210 0
249 484 -250 0
249 250 -484 -134 0
249 250 -484 -506 0
-249 -484 -250 0
484 250 -249 0
506 134 -249 -484 0
250 -251 -255 0
251 -250 0
255 -250 0
251 252 253 -134 0
251 252 -134 -254 0
134 -251 0
-251 -252 0
254 -251 -253 0
252 10 -140 0
-252 -10 0
140 -252 0
253 179 -10 0
10 -253 0
-253 -179 0
254 159 190 0
254 140 159 0
-254 -159 0
-254 -140 -190 0
255 -10 -179 0
255 10 -257 0
255 -10 -256 0
10 257 -255 0
179 256 -255 -10 0
256 506 -484 -240 0
256 484 -192 -240 0
240 -256 0
484 192 -256 0
-256 -484 -506 0
257 434 506 159 -484 0
484 -257 0
-257 -159 0
-257 -434 0
-257 -506 0
258 263 -548 -259 0
258 548 259 263 0
-258 -263 0
259 -258 -548 0
548 -258 -259 0
259 262 -260 0
259 37 262 -47 0
-259 -262 0
260 -259 -37 0
47 260 -259 0
260 428 -261 0
-260 -428 0
261 -260 0
261 -21 -221 0
21 -261 0
221 -261 0
262 -428 -261 0
262 37 261 -53 0
53 261 -262 0
428 -262 -261 0
261 -262 -37 0
263 265 -442 0
263 265 -134 -264 0
-263 -265 0
442 264 -263 0
442 134 -263 0
264 -433 -183 0
433 -264 0
183 -264 0
265 471 185 -442 0
265 471 -442 -264 0
442 -265 0
-265 -471 0
264 -265 -185 0
266 267 -506 -270 0
266 506 267 270 0
-266 -267 0
270 -266 -506 0
506 -266 -270 0
267 453 -24 -268 0
267 24 -453 -269 0
24 269 -267 0
-267 -453 -24 0
268 -267 -24 0
453 24 -267 0
268 158 -134 0
-268 -158 0
134 -268 0
269 -164 -134 0
269 160 -134 0
134 -269 0
164 -269 -160 0
270 251 -140 0
270 251 -134 0
-270 -251 0
140 134 -270 0
271 272 278 -281 -286 0
-271 -272 0
286 -271 0
281 -271 0
-271 -278 0
272 -469 -494 0
272 494 -273 0
272 -494 -276 0
494 273 -272 0
469 276 -272 -494 0
273 -435 -274 0
435 -273 0
274 -273 0
274 -134 -275 0
134 -274 0
275 -274 0
275 -179 -252 0
179 -275 0
252 -275 0
276 435 -134 -275 0
276 275 -134 -277 0
134 -276 0
275 277 -276 0
-276 -435 -275 0
277 160 -10 -173 0
10 -277 0
-277 -160 0
173 -277 0
278 -469 -494 0
278 469 -279 0
278 -469 -280 0
469 279 -278 0
494 280 -278 -469 0
279 435 -274 0
-279 -435 0
274 -279 0
280 -435 -134 -275 0
280 275 -171 -134 0
134 -280 0
435 -280 -275 0
171 275 -280 0
281 282 -496 -262 0
281 496 262 282 0
281 496 262 -536 0
281 -496 -536 -262 0
262 -281 -496 0
496 -281 -262 0
536 -281 -282 0
282 283 -148 0
282 283 -134 0
-282 -283 0
148 134 -282 0
283 150 284 -134 0
283 284 -134 -285 0
134 -283 0
-283 -284 0
285 -283 -150 0
284 24 -148 0
-284 -24 0
148 -284 0
285 159 190 0
285 148 159 0
-285 -159 0
-285 -148 -190 0
286 479 291 -463 0
286 287 -479 -291 0
286 -463 -479 -291 0
286 479 287 291 0
479 -286 -291 0
291 -286 -479 0
463 -286 -287 0
287 290 -288 0
287 59 290 -67 0
-287 -290 0
288 -287 -59 0
67 288 -287 0
288 435 -289 0
-288 -435 0
289 -288 0
289 -9 -21 0
9 -289 0
21 -289 0
290 -435 -289 0
290 59 289 -60 0
60 289 -290 0
435 -290 -289 0
289 -290 -59 0
291 26 209 0
291 26 -27 0
-291 -26 0
27 -291 -209 0
292 -293 -315 -321 -323 0
323 -292 0
293 -292 0
321 -292 0
315 -292 0
293 -294 -298 -299 -303 0
303 -293 0
294 -293 0
299 -293 0
298 -293 0
294 208 295 -296 0
294 295 -539 -296 0
296 -294 0
-294 -295 0
539 -294 -208 0
295 531 -207 0
295 207 -531 0
-295 -531 -207 0
531 207 -295 0
296 547 197 -297 0
296 -547 -197 -297 0
296 522 -547 -197 0
296 522 547 197 0
197 -296 -547 0
547 -296 -197 0
297 -296 -522 0
297 209 -206 0
297 209 -221 0
297 209 -9 0
-297 -209 0
9 206 221 -297 0
298 439 490 246 0
298 -490 -208 -246 0
298 439 -490 -246 0
298 490 246 -208 0
490 -298 -246 0
246 -298 -490 0
208 -298 -439 0
299 209 300 -468 0
299 468 300 -209 0
299 134 209 -468 0
299 468 134 -209 0
-299 -468 -209 0
468 209 -299 0
-299 -134 -300 0
300 -164 -158 0
300 -164 -301 0
300 529 158 -301 0
158 301 -300 0
164 -300 -158 0
164 -300 -529 0
301 252 284 -416 0
301 302 252 284 0
-301 -284 0
-301 -252 0
416 -301 -302 0
302 455 -549 0
-302 -455 0
549 -302 0
303 554 304 -305 -306 0
303 -554 -304 -305 -306 0
306 -303 0
304 -303 -554 0
305 -303 0
554 -303 -304 0
304 -124 -132 0
124 -304 0
132 -304 0
305 538 289 297 0
305 297 -538 -289 0
305 538 289 -522 0
305 -522 -538 -289 0
289 -305 -538 0
538 -305 -289 0
522 -305 -297 0
306 495 196 310 -307 0
306 310 -495 -196 -307 0
-306 -310 0
196 -306 -495 0
307 -306 0
495 -306 -196 0
307 478 308 -446 -234 0
307 446 234 -478 -308 0
307 446 478 234 308 0
307 -446 -478 -234 -308 0
234 -307 -446 0
446 -307 -234 0
478 -307 -308 0
308 -307 -478 0
308 -124 -309 0
124 -308 0
309 -308 0
309 24 -95 0
-309 -24 0
95 -309 0
310 312 -134 0
310 311 -555 -134 0
134 -310 0
555 -310 -312 0
-310 -311 -312 0
311 148 0
311 24 -428 0
311 24 179 0
-311 -24 -148 0
428 -311 -148 -179 0
312 460 313 0
312 170 313 0
-312 -313 0
-312 -460 -170 0
313 460 555 -314 0
313 555 -428 -314 0
314 -313 0
-313 -555 0
428 -313 -460 0
314 -179 -284 0
179 -314 0
284 -314 0
315 502 222 -316 -320 0
315 -502 -222 -316 -320 0
320 -315 0
222 -315 -502 0
316 -315 0
502 -315 -222 0
316 487 124 317 -318 0
316 317 -487 -124 -318 0
-316 -317 0
487 -316 -124 0
318 -316 0
124 -316 -487 0
317 21 -492 0
317 481 -21 0
317 492 -481 0
-317 -481 -492 -21 0
481 492 21 -317 0
318 517 520 319 0
318 319 -517 -198 0
-318 -319 0
517 -318 -520 0
198 -318 -517 0
319 530 -127 0
319 127 -530 0
-319 -530 -127 0
530 127 -319 0
320 556 21 247 0
320 247 -556 -21 0
320 556 21 -543 0
320 -543 -556 -21 0
21 -320 -556 0
556 -320 -21 0
543 -320 -247 0
321 -181 -322 0
321 268 269 0
321 269 -322 0
321 268 -181 0
322 -321 -268 0
181 -321 -269 0
322 416 -524 0
322 -416 -476 0
322 416 417 0
476 -322 -416 0
416 524 -322 -417 0
323 -324 -327 -330 -335 0
335 -323 0
324 -323 0
330 -323 0
327 -323 0
324 512 226 326 -325 0
324 326 -512 -226 -325 0
-324 -326 0
226 -324 -512 0
325 -324 0
512 -324 -226 0
325 511 123 -499 -236 0
325 -499 -511 -123 -236 0
325 499 511 123 236 0
325 499 236 -511 -123 0
499 -325 -236 0
236 -325 -499 0
123 -325 -511 0
511 -325 -123 0
326 503 -261 0
326 261 -503 0
-326 -503 -261 0
503 261 -326 0
327 -462 -328 -329 0
327 462 328 -329 0
329 -327 0
328 -327 -462 0
462 -327 -328 0
328 -124 -231 0
124 -328 0
231 -328 0
329 543 -449 -198 0
329 449 543 198 0
329 449 198 -247 0
329 -449 -198 -247 0
198 -329 -449 0
449 -329 -198 0
247 -329 -543 0
330 333 -127 -331 0
330 461 333 -331 0
331 -330 0
-330 -333 0
127 -330 -461 0
331 332 -124 0
331 532 558 332 0
-331 -332 0
124 -331 -558 0
124 -331 -532 0
332 520 -198 0
-332 -520 0
198 -332 0
333 466 -541 0
333 334 -466 0
-333 -466 -334 0
466 541 -333 0
334 89 114 0
-334 -89 0
-334 -114 0
335 404 -509 -336 0
335 127 404 -336 0
336 -335 0
-335 -404 0
509 -335 -127 0
336 504 334 -337 0
336 -504 -541 -334 -337 0
541 -336 -504 0
504 -336 -334 0
337 -336 0
334 -336 -504 0
337 -338 -339 -351 -353 0
353 -337 0
338 -337 0
351 -337 0
339 -337 0
338 553 66 -486 0
338 58 -553 -66 0
338 -486 -553 -66 0
338 553 58 66 0
553 -338 -66 0
66 -338 -553 0
486 -338 -58 0
339 523 70 -340 -341 0
339 -523 -70 -340 -341 0
341 -339 0
70 -339 -523 0
340 -339 0
523 -339 -70 0
340 486 534 0
340 -52 -58 0
340 534 -58 0
340 486 -52 0
52 -340 -534 0
58 -340 -486 0
341 -534 -342 -348 0
341 52 -342 -348 0
348 -341 0
342 -341 0
534 -341 -52 0
342 -343 -345 -346 -347 0
347 -342 0
343 -342 0
346 -342 0
345 -342 0
343 95 344 0
343 344 -443 -544 0
-343 -344 0
544 -343 -95 0
443 -343 -95 0
344 111 -474 0
474 -344 0
-344 -111 0
345 -540 -11 0
345 475 104 0
345 475 -540 0
345 104 -11 0
11 -345 -475 0
540 -345 -104 0
346 491 516 0
346 -95 -104 0
346 516 -104 0
346 491 -95 0
95 -346 -516 0
104 -346 -491 0
347 11 -474 0
347 111 -550 0
347 -474 -550 0
347 11 111 0
474 -347 -111 0
550 -347 -11 0
348 519 349 -350 0
348 349 -38 -350 0
350 -348 0
-348 -349 0
38 -348 -519 0
349 95 -443 0
349 95 -544 0
-349 -95 0
443 544 -349 0
350 11 -535 0
350 72 -475 0
350 -475 -535 0
350 11 72 0
535 -350 -72 0
475 -350 -11 0
351 -459 -85 -352 0
351 459 85 -352 0
352 -351 0
85 -351 -459 0
459 -351 -85 0
352 -447 -108 0
352 467 92 0
352 92 -108 0
352 467 -447 0
108 -352 -467 0
447 -352 -92 0
353 457 101 -354 -355 0
353 -457 -101 -354 -355 0
355 -353 0
101 -353 -457 0
354 -353 0
457 -353 -101 0
354 -467 -92 0
354 447 108 0
354 447 -467 0
354 108 -92 0
92 -354 -447 0
467 -354 -108 0
355 473 36 -356 -400 0
355 -473 -36 -356 -400 0
400 -355 0
36 -355 -473 0
356 -355 0
473 -355 -36 0
356 -357 -382 -389 -391 0
391 -356 0
357 -356 0
389 -356 0
382 -356 0
357 -358 -361 -364 -378 0
378 -357 0
358 -357 0
364 -357 0
361 -357 0
358 445 359 -360 0
358 359 -80 -360 0
360 -358 0
-358 -359 0
80 -358 -445 0
359 26 -518 0
359 26 -560 0
-359 -26 0
518 560 -359 0
360 533 -448 0
360 67 -47 0
360 533 67 0
360 -448 -47 0
47 -360 -533 0
448 -360 -67 0
361 363 -497 -362 0
361 363 -210 -362 0
362 -361 0
-361 -363 0
497 210 -361 0
362 210 -545 0
362 557 49 0
362 49 210 0
362 557 -545 0
-362 -557 -210 0
545 -362 -49 0
363 508 215 0
-363 -508 0
-363 -215 0
364 497 -365 -370 0
364 210 -365 -370 0
370 -364 0
365 -364 0
-364 -497 -210 0
365 -440 -367 0
365 366 -367 0
367 -365 0
440 -365 -366 0
366 13 216 -508 0
366 216 -559 -13 0
-366 -216 0
508 13 -366 0
559 -366 -13 0
367 368 -557 0
367 369 -477 0
367 -477 -557 0
367 368 369 0
557 -367 -369 0
477 -367 -368 0
368 201 -525 -74 0
368 74 201 -537 0
-368 -201 0
537 74 -368 0
525 -368 -74 0
369 40 211 -497 0
369 211 -552 -40 0
-369 -211 0
497 40 -369 0
552 -369 -40 0
370 416 546 -371 -373 0
370 -416 -546 -371 -373 0
373 -370 0
546 -370 -416 0
371 -370 0
416 -370 -546 0
371 452 472 514 -372 0
372 -371 0
-371 -514 0
-371 -452 0
-371 -472 0
372 540 -483 0
372 488 -513 0
372 488 540 0
372 -483 -513 0
483 -372 -488 0
513 -372 -540 0
373 456 10 -374 -377 0
373 -456 -10 -374 -377 0
377 -373 0
10 -373 -456 0
374 -373 0
456 -373 -10 0
374 545 375 -376 0
374 375 -533 -376 0
376 -374 0
-374 -375 0
533 -374 -545 0
375 -460 -555 0
460 -375 0
555 -375 0
376 509 -439 0
376 539 -461 0
376 -439 -461 0
376 509 539 0
439 -376 -539 0
461 -376 -509 0
377 -500 -24 0
377 500 24 0
500 -377 -24 0
24 -377 -500 0
378 515 -379 -381 0
378 -60 -379 -381 0
381 -378 0
379 -378 0
60 -378 -515 0
379 215 380 0
379 440 508 380 0
-379 -380 0
-379 -508 -215 0
-379 -440 -215 0
380 -477 -200 0
477 -380 0
200 -380 0
381 68 -445 0
381 82 -458 0
381 -445 -458 0
381 68 82 0
445 -381 -82 0
458 -381 -68 0
382 480 26 -383 -385 0
382 -480 -26 -383 -385 0
385 -382 0
26 -382 -480 0
383 -382 0
480 -382 -26 0
383 384 -519 0
383 510 44 384 0
-383 -384 0
519 -383 -510 0
519 -383 -44 0
384 53 -483 0
483 -384 0
-384 -53 0
385 550 386 -387 0
385 386 -17 -387 0
387 -385 0
-385 -386 0
17 -385 -550 0
386 560 -26 0
386 518 -26 0
26 -386 0
-386 -518 -560 0
387 388 -67 0
387 448 458 388 0
-387 -388 0
67 -387 -458 0
67 -387 -448 0
388 521 -60 0
388 515 -60 0
60 -388 0
-388 -515 -521 0
389 390 -501 -111 0
389 482 501 111 390 0
111 -389 -501 0
501 -389 -111 0
-389 -390 0
501 -389 -482 0
390 516 -95 0
-390 -516 0
95 -390 0
391 513 -392 -398 0
391 -104 -392 -398 0
398 -391 0
392 -391 0
104 -391 -513 0
392 -393 -394 -396 -397 0
397 -392 0
393 -392 0
396 -392 0
394 -392 0
393 200 -482 -537 0
393 537 -482 -200 0
393 537 112 -200 0
393 112 200 -537 0
537 200 -393 0
-393 -537 -200 0
482 -393 -112 0
394 86 395 0
394 395 -493 -498 0
-394 -395 0
498 -394 -86 0
493 -394 -86 0
395 27 -489 0
489 -395 0
-395 -27 0
396 44 -491 0
396 105 -510 0
396 -491 -510 0
396 44 105 0
491 -396 -105 0
510 -396 -44 0
397 -488 -62 0
397 521 54 0
397 54 -62 0
397 521 -488 0
62 -397 -521 0
488 -397 -54 0
398 -86 -399 0
398 493 498 -399 0
399 -398 0
86 -398 -498 0
86 -398 -493 0
399 542 29 0
399 -489 -542 -29 0
399 28 29 -489 0
489 -399 -542 0
542 -399 -29 0
29 -399 -542 -28 0
400 465 535 -401 0
400 -465 -72 -401 0
401 -400 0
465 -400 -535 0
72 -400 -465 0
401 470 -402 -403 0
401 402 -470 -403 0
403 -401 0
470 402 -401 0
-401 -470 -402 0
402 -32 -135 0
402 27 -135 0
135 -402 0
32 -402 -27 0
403 450 80 -444 -26 0
403 444 26 -450 -80 0
403 444 450 26 80 0
403 -444 -450 -26 -80 0
26 -403 -444 0
444 -403 -26 0
450 -403 -80 0
80 -403 -450 0
404 558 -124 0
404 532 -124 0
124 -404 0
-404 -532 -558 0
405 -406 -409 -414 -415 0
415 -405 0
406 -405 0
414 -405 0
409 -405 0
406 536 407 -454 0
406 454 -282 -407 0
406 454 536 -407 0
406 407 -454 -282 0
-406 -454 -407 0
454 407 -406 0
282 -406 -536 0
407 408 -129 0
407 24 408 0
-407 -408 0
129 -407 -24 0
408 437 38 124 -309 0
309 -408 0
-408 -124 0
-408 -437 0
-408 -38 0
409 -441 -410 0
409 441 410 0
409 536 134 -441 0
441 -409 -410 0
410 -409 -441 -134 0
410 -409 -441 -536 0
410 411 -283 -413 0
410 411 -24 -283 0
283 -410 0
-410 -411 0
24 413 -410 0
411 -150 -412 0
411 240 -150 0
150 -411 0
412 -411 -240 0
412 -441 -536 0
412 441 192 0
536 -412 -441 0
441 -412 -192 0
413 437 536 159 -441 0
441 -413 0
-413 -159 0
-413 -437 0
-413 -536 0
414 526 290 -505 -227 0
414 505 227 -526 -290 0
414 505 526 227 290 0
414 -505 -526 -227 -290 0
227 -414 -505 0
505 -414 -227 0
526 -414 -290 0
290 -414 -526 0
415 463 188 0
415 -549 -287 0
415 463 -549 0
415 188 -287 0
287 -415 -463 0
549 -415 -188 0
684 0
2 4 0
-2 -4 0
3 4 0
-3 -4 0
3 0
